RT is False
Default write of storage_offers_DA.csv just to have a file (but constraint should be inactive)
Reading model...
...model read.
creating competitive generators file...
...competitive generators recorded.
Loading data...
.. day-ahead data with real-time VRE data read.
Compiling instance...
...instance created.
Creating Offer Mitigation (model will solve as dispatch if TRUE)...
Solving...

Welcome to IBM(R) ILOG(R) CPLEX(R) Interactive Optimizer 12.8.0.0
  with Simplex, Mixed Integer & Barrier Optimizers
5725-A06 5725-A29 5724-Y48 5724-Y49 5724-Y54 5724-Y55 5655-Y21
Copyright IBM Corp. 1988, 2017.  All Rights Reserved.

Type 'help' for a list of available commands.
Type 'help' followed by a command name for more
information on commands.

CPLEX> Logfile 'cplex.log' closed.
Logfile 'C:\Users\llavi\Desktop\test919\logs\tmpcgr614fi.cplex.log' open.
CPLEX> New value for parallel optimization mode: -1
CPLEX> New value for mixed integer optimality gap tolerance: 0.01
CPLEX> New value for integrality tolerance: 1e-09
CPLEX> New value for feasibility tolerance: 0.01
CPLEX> New value for deterministic time limit in ticks: 75000
CPLEX> Problem 'C:\Users\llavi\Desktop\test919\logs\tmpc1sl2v_y.pyomo.lp' read.
Read time = 0.11 sec. (3.03 ticks)
CPLEX> Problem name         : C:\Users\llavi\Desktop\test919\logs\tmpc1sl2v_y.pyomo.lp
Objective sense      : Minimize
Variables            :   26465  [Nneg: 1,  Box: 22000,  Free: 4464]
Objective nonzeros   :    2496
Linear constraints   :   27515  [Less: 14006,  Greater: 4416,  Equal: 9093]
  Nonzeros           :   89171
  RHS nonzeros       :   12271

Variables            : Min LB: -5000.000        Max UB: 1000000.       
Objective nonzeros   : Min   : 15.73158         Max   : 124.0997       
Linear constraints   :
  Nonzeros           : Min   : 0.8500000        Max   : 3000.000       
  RHS nonzeros       : Min   : 0.3083333        Max   : 5000.000       
CPLEX> CPXPARAM_Simplex_Tolerances_Feasibility          0.01
CPXPARAM_Parallel                                -1
CPXPARAM_DetTimeLimit                            75000
CPXPARAM_MIP_Tolerances_MIPGap                   0.01
CPXPARAM_MIP_Tolerances_Integrality              1.0000000000000001e-09
Parallel mode: opportunistic, using up to 4 threads for concurrent optimization.
Tried aggregator 1 time.
LP Presolve eliminated 21401 rows and 15895 columns.
Aggregator did 722 substitutions.
Reduced LP has 5392 rows, 9848 columns, and 31764 nonzeros.
Presolve time = 0.06 sec. (22.46 ticks)

Iteration log . . .
Iteration:     1   Dual objective     =             0.000000
Perturbation started.
Iteration:   101   Dual objective     =             0.000000
Iteration:   359   Dual objective     =             1.352479
Iteration:   630   Dual objective     =             1.976487
Iteration:   956   Dual objective     =             2.153676
Iteration:  1151   Dual objective     =             2.274775
Iteration:  1509   Dual objective     =             2.332473
Iteration:  1810   Dual objective     =             2.362016
Iteration:  2111   Dual objective     =             2.382968
Iteration:  2412   Dual objective     =             2.396590
Iteration:  2714   Dual objective     =             2.409420
Iteration:  3071   Dual objective     =             2.418695
Iteration:  3497   Dual objective     =             2.425709
Iteration:  3879   Dual objective     =          6043.067338
Iteration:  4233   Dual objective     =         12127.336880
Removing perturbation.

Dual simplex solved model.


Dual simplex - Optimal:  Objective =  1.2387418777e+04
Solution time =    0.20 sec.  Iterations = 4473 (0)
Deterministic time = 94.36 ticks  (462.54 ticks/sec)

CPLEX> Solution written to file 'C:\Users\llavi\Desktop\test919\logs\tmp81ax7a9_.cplex.sol'.
CPLEX> Exporting results... 
...storage offer mitigation file created
Converting model to MPEC...
...converted
NOTE: initial MIP solve with only storage competitive to get feasible solution
Solving...

Welcome to IBM(R) ILOG(R) CPLEX(R) Interactive Optimizer 12.8.0.0
  with Simplex, Mixed Integer & Barrier Optimizers
5725-A06 5725-A29 5724-Y48 5724-Y49 5724-Y54 5724-Y55 5655-Y21
Copyright IBM Corp. 1988, 2017.  All Rights Reserved.

Type 'help' for a list of available commands.
Type 'help' followed by a command name for more
information on commands.

CPLEX> Logfile 'cplex.log' closed.
Logfile 'C:\Users\llavi\Desktop\test919\logs\tmpftihvzyi.cplex.log' open.
CPLEX> New value for parallel optimization mode: -1
CPLEX> New value for mixed integer optimality gap tolerance: 0.01
CPLEX> New value for integrality tolerance: 1e-09
CPLEX> New value for feasibility tolerance: 0.01
CPLEX> New value for deterministic time limit in ticks: 75000
CPLEX> Problem 'C:\Users\llavi\Desktop\test919\logs\tmppsbykjw4.pyomo.lp' read.
Read time = 0.25 sec. (13.96 ticks)
CPLEX> Problem name         : C:\Users\llavi\Desktop\test919\logs\tmppsbykjw4.pyomo.lp
Objective sense      : Maximize
Variables            :   53805  [Nneg: 1,  Box: 22000,  Free: 4464,
                                 Binary: 27340]
Objective nonzeros   :    9078
Linear constraints   :  123205  [Less: 41346,  Greater: 59096,  Equal: 22763]
  Nonzeros           :  291705
  RHS nonzeros       :   67414

Variables            : Min LB: -5000.000        Max UB: 1000000.       
Objective nonzeros   : Min   : 0.3083333        Max   : 2500.000       
Linear constraints   :
  Nonzeros           : Min   : 0.3083333        Max   : 1000000.       
  RHS nonzeros       : Min   : 0.3083333        Max   : 1000000.       
CPLEX> CPXPARAM_Simplex_Tolerances_Feasibility          0.01
CPXPARAM_Parallel                                -1
CPXPARAM_DetTimeLimit                            75000
CPXPARAM_MIP_Tolerances_MIPGap                   0.01
CPXPARAM_MIP_Tolerances_Integrality              1.0000000000000001e-09
Tried aggregator 3 times.
MIP Presolve eliminated 88677 rows and 19025 columns.
MIP Presolve added 3352 rows and 0 columns.
MIP Presolve modified 23872 coefficients.
Aggregator did 12973 substitutions.
Reduced MIP has 24907 rows, 21251 columns, and 70981 nonzeros.
Reduced MIP has 8414 binaries, 0 generals, 0 SOSs, and 0 indicators.
Presolve time = 0.28 sec. (165.42 ticks)
Probing fixed 400 vars, tightened 2935 bounds.
Probing time = 3.78 sec. (921.14 ticks)
Tried aggregator 2 times.
MIP Presolve eliminated 902 rows and 802 columns.
MIP Presolve modified 2235 coefficients.
Aggregator did 40 substitutions.
Reduced MIP has 23965 rows, 20409 columns, and 68245 nonzeros.
Reduced MIP has 8014 binaries, 0 generals, 0 SOSs, and 0 indicators.
Presolve time = 0.11 sec. (55.86 ticks)
Probing time = 0.08 sec. (15.11 ticks)
Clique table members: 6663.
MIP emphasis: balance optimality and feasibility.
MIP search method: dynamic search.
Parallel mode: opportunistic, using up to 4 threads.
Root relaxation solution time = 0.59 sec. (414.90 ticks)

        Nodes                                         Cuts/
   Node  Left     Objective  IInf  Best Integer    Best Bound    ItCnt     Gap

      0     0        0.0000   667                      0.0000     2596         
*     0+    0                            0.0000        0.0000             0.00%
      0     0        cutoff              0.0000        0.0000     2596    0.00%
Elapsed time = 6.25 sec. (1964.86 ticks, tree = 0.01 MB, solutions = 1)

Root node processing (before b&c):
  Real time             =    6.28 sec. (1967.13 ticks)
Parallel b&c, 4 threads:
  Real time             =    0.00 sec. (0.00 ticks)
  Sync time (average)   =    0.00 sec.
  Wait time (average)   =    0.00 sec.
                          ------------
Total (root+branch&cut) =    6.28 sec. (1967.13 ticks)

Solution pool: 1 solution saved.

MIP - Integer optimal solution:  Objective =  1.6698322725e-09
Solution time =    6.30 sec.  Iterations = 2596  Nodes = 0
Deterministic time = 1967.29 ticks  (312.42 ticks/sec)

CPLEX> Incumbent solution written to file 'C:\Users\llavi\Desktop\test919\logs\tmpxjo2g20c.cplex.sol'.
CPLEX> NOTE: no warmstart specified for MIP iteration, default behavior is true
NOTE: resolving with all competitive generators using storage-only solution to warmstart
Solving...

Welcome to IBM(R) ILOG(R) CPLEX(R) Interactive Optimizer 12.8.0.0
  with Simplex, Mixed Integer & Barrier Optimizers
5725-A06 5725-A29 5724-Y48 5724-Y49 5724-Y54 5724-Y55 5655-Y21
Copyright IBM Corp. 1988, 2017.  All Rights Reserved.

Type 'help' for a list of available commands.
Type 'help' followed by a command name for more
information on commands.

CPLEX> Logfile 'cplex.log' closed.
Logfile 'C:\Users\llavi\Desktop\test919\logs\tmpq2tdamyk.cplex.log' open.
CPLEX> New value for parallel optimization mode: -1
CPLEX> New value for mixed integer optimality gap tolerance: 0.01
CPLEX> New value for integrality tolerance: 1e-09
CPLEX> New value for feasibility tolerance: 0.01
CPLEX> New value for deterministic time limit in ticks: 75000
CPLEX> Problem 'C:\Users\llavi\Desktop\test919\logs\tmpr3f39t6b.pyomo.lp' read.
Read time = 0.30 sec. (13.98 ticks)
CPLEX> MIP start file 'C:\Users\llavi\Desktop\test919\logs\tmpcm37rj1h.cplex.mst' read.
CPLEX> Problem name         : C:\Users\llavi\Desktop\test919\logs\tmpr3f39t6b.pyomo.lp
Objective sense      : Maximize
Variables            :   54525  [Nneg: 1,  Box: 22720,  Free: 4464,
                                 Binary: 27340]
Objective nonzeros   :    9774
Linear constraints   :  123205  [Less: 41346,  Greater: 59096,  Equal: 22763]
  Nonzeros           :  291705
  RHS nonzeros       :   67414

Variables            : Min LB: -5000.000        Max UB: 1000000.       
Objective nonzeros   : Min   : 0.3083333        Max   : 2500.000       
Linear constraints   :
  Nonzeros           : Min   : 0.3083333        Max   : 1000000.       
  RHS nonzeros       : Min   : 0.3083333        Max   : 1000000.       
CPLEX> CPXPARAM_Simplex_Tolerances_Feasibility          0.01
CPXPARAM_Parallel                                -1
CPXPARAM_DetTimeLimit                            75000
CPXPARAM_MIP_Tolerances_MIPGap                   0.01
CPXPARAM_MIP_Tolerances_Integrality              1.0000000000000001e-09
Warning:  No solution found from 1 MIP starts.
Retaining values of one MIP start for possible repair.
Tried aggregator 3 times.
MIP Presolve eliminated 88677 rows and 19745 columns.
MIP Presolve added 3352 rows and 0 columns.
MIP Presolve modified 23872 coefficients.
Aggregator did 12973 substitutions.
Reduced MIP has 24907 rows, 21251 columns, and 70981 nonzeros.
Reduced MIP has 8414 binaries, 0 generals, 0 SOSs, and 0 indicators.
Presolve time = 0.31 sec. (165.78 ticks)
Probing fixed 400 vars, tightened 2935 bounds.
Probing time = 3.75 sec. (921.14 ticks)
Tried aggregator 2 times.
MIP Presolve eliminated 902 rows and 802 columns.
MIP Presolve modified 2235 coefficients.
Aggregator did 40 substitutions.
Reduced MIP has 23965 rows, 20409 columns, and 68245 nonzeros.
Reduced MIP has 8014 binaries, 0 generals, 0 SOSs, and 0 indicators.
Presolve time = 0.11 sec. (55.86 ticks)
Probing time = 0.06 sec. (15.11 ticks)
Clique table members: 6663.
MIP emphasis: balance optimality and feasibility.
MIP search method: dynamic search.
Parallel mode: opportunistic, using up to 4 threads.
Root relaxation solution time = 0.72 sec. (520.44 ticks)

        Nodes                                         Cuts/
   Node  Left     Objective  IInf  Best Integer    Best Bound    ItCnt     Gap

      0     0   104777.2570   695                 104777.2570     3302         
      0     0   100899.1910    94                   Cuts: 127     3395         
      0     0   100407.7930   100                    Cuts: 76     3415         
      0     0   100407.1250    98                    Cuts: 36     3419         
      0     0   100407.1250    98                    Cuts: 35     3419         
Repair heuristic found nothing.
      0     2   100407.1250    96                 100138.4912     3419         
Elapsed time = 30.45 sec. (9439.80 ticks, tree = 0.03 MB, solutions = 0)
     66    51    68613.9557    71                  99750.1126     4581         
    161    99    infeasible                        99750.1126     6024         
    258   109    63987.1105    56                  99750.1126     7025         
    341   143    infeasible                        99750.1126     8295         
    395   152     6637.1967    19                  99750.1126     9537         
*   455   188      integral     0    -5834.1217    99750.1126    10474     --- 
    471   197    29308.1353    40    -5834.1217    99750.1126    11039     --- 
    573   220     9078.1366     7    -5834.1217    99750.1126    11500     --- 
    659   268    16254.6499    21    -5834.1217    99750.1126    12520     --- 
    751   279     -170.1190     3    -5834.1217    99750.1126    12578     --- 
   1024   467    16136.6606     8    -5834.1217    95478.7511    13882     --- 
Elapsed time = 36.97 sec. (12583.65 ticks, tree = 6.39 MB, solutions = 1)
   1091   494        cutoff          -5834.1217    95478.7511    14110     --- 
   1223   568    11691.5109     7    -5834.1217    95478.7511    14673     --- 
   1293   572     8021.3458     7    -5834.1217    95478.7511    14731     --- 
   1420   581    13250.9210     6    -5834.1217    95478.7511    15053     --- 
   1457   669        cutoff          -5834.1217    95478.7511    15305     --- 
   1483   677     8021.3458     9    -5834.1217    95478.7511    15345     --- 
   1587   743    24884.0949     9    -5834.1217    95478.7511    15935     --- 
   1625   743        cutoff          -5834.1217    95478.7511    15962     --- 
   1711   798        cutoff          -5834.1217    95478.7511    16292     --- 
   1837   875    25854.2090     9    -5834.1217    95478.7511    16598     --- 
Elapsed time = 52.11 sec. (22249.76 ticks, tree = 10.36 MB, solutions = 1)
   1876   885        cutoff          -5834.1217    95478.7511    16655     --- 
   1908   886    25854.2090     9    -5834.1217    95478.7511    16665     --- 
   1941   885        cutoff          -5834.1217    95478.7511    16667     --- 
   1978   899    41648.3898    30    -5834.1217    95478.7511    16907     --- 
   2098   889    38927.5793    42    -5834.1217    95478.7511    16885     --- 
   2215   985    18393.8698    12    -5834.1217    95478.7511    17545     --- 
   2321  1057    28116.4081    13    -5834.1217    95478.7511    18382     --- 
   2387  1140        cutoff          -5834.1217    95478.7511    18965     --- 
   2415   981        cutoff          -5834.1217    95478.7511    17736     --- 
   2446  1132        cutoff          -5834.1217    95478.7511    18914     --- 
Elapsed time = 67.63 sec. (31947.77 ticks, tree = 12.26 MB, solutions = 1)
   2469  1139        cutoff          -5834.1217    95478.7511    18964     --- 
   2496  1147    25785.9421    36    -5834.1217    95478.7511    19408     --- 
   2561  1186    22765.2823     9    -5834.1217    95478.7511    19527     --- 
   2683  1250    38497.4509    14    -5834.1217    95478.7511    19902     --- 
   2830  1297        cutoff          -5834.1217    95478.7511    20219     --- 
   2869  1288        cutoff          -5834.1217    95478.7511    20052     --- 
   2922  1324    20768.9980    49    -5834.1217    95478.7511    20601     --- 
   2971  1340    20448.2613    11    -5834.1217    95478.7511    20644     --- 
   2998  1343    20448.2613    11    -5834.1217    95478.7511    20651     --- 
   3018  1480    20448.2613    11    -5834.1217    95478.7511    21553     --- 
Elapsed time = 82.30 sec. (41770.34 ticks, tree = 15.80 MB, solutions = 1)
   3081  1419    14842.3785    13    -5834.1217    91924.6893    21035     --- 
   3177  1496    36956.7111    28    -5834.1217    91924.6893    21531     --- 
   3301  1496    44545.6090    20    -5834.1217    91924.6893    21617     --- 
   3425  1630    17282.2196     7    -5834.1217    91924.6893    22450     --- 
   3538  1676    36922.7699    10    -5834.1217    91924.6893    22576     --- 
   3554  1677    36922.7699    10    -5834.1217    91924.6893    22582     --- 
*  3563+ 1197                            0.0000     6069.0251              --- 
   3563  1196        cutoff              0.0000        0.0000    30800  -99.08%

GUB cover cuts applied:  2
Clique cuts applied:  6
Cover cuts applied:  8
Implied bound cuts applied:  372
Flow cuts applied:  1680
Mixed integer rounding cuts applied:  1616
Gomory fractional cuts applied:  25

Root node processing (before b&c):
  Real time             =   30.19 sec. (9398.60 ticks)
Parallel b&c, 4 threads:
  Real time             =   67.53 sec. (41849.22 ticks)
  Sync time (average)   =    0.06 sec.
  Wait time (average)   =    0.01 sec.
                          ------------
Total (root+branch&cut) =   97.72 sec. (51247.82 ticks)

Solution pool: 2 solutions saved.

MIP - Integer optimal solution:  Objective =  9.0341927717e-08
Solution time =   97.72 sec.  Iterations = 30800  Nodes = 3563
Deterministic time = 51247.97 ticks  (524.44 ticks/sec)

CPLEX> Incumbent solution written to file 'C:\Users\llavi\Desktop\test919\logs\tmp4fxcrtnk.cplex.sol'.
CPLEX> Exporting results... 
